c cksystemsgroup.github.io/unicorn
c CNF contains a total of 497 clauses.
c CNF contains a total of 120 variables.
c CNF clauses cover 1 bad states.
c Variable name mapping (17 names):
c   1: input[bit=0]
c   2: input[bit=0]
c   5: input[bit=1]
c   7: input[bit=1]
c   12: input[bit=2]
c   17: input[bit=2]
c   22: input[bit=3]
c   30: input[bit=3]
c   36: input[bit=4]
c   47: input[bit=4]
c   52: input[bit=5]
c   66: input[bit=5]
c   72: input[bit=6]
c   89: input[bit=6]
c   95: input[bit=7]
c   115: input[bit=7]
c   120: ?
p cnf 120 497
-1 -2 3 0
1 -3 0
2 -3 0
-3 -4 0
3 4 0
-5 -2 6 0
5 -6 0
2 -6 0
-1 -7 8 0
1 -8 0
7 -8 0
-9 0
6 8 9 -10 0
6 8 -9 10 0
6 -8 9 10 0
6 -8 -9 -10 0
-6 8 9 10 0
-6 8 -9 -10 0
-6 -8 9 -10 0
-6 -8 -9 10 0
-4 -10 11 0
4 -11 0
10 -11 0
-12 -2 13 0
12 -13 0
2 -13 0
-5 -7 14 0
5 -14 0
7 -14 0
6 8 -15 0
6 9 -15 0
-8 -9 15 0
8 9 -15 0
-6 -9 15 0
-6 -8 15 0
13 14 15 -16 0
13 14 -15 16 0
13 -14 15 16 0
13 -14 -15 -16 0
-13 14 15 16 0
-13 14 -15 -16 0
-13 -14 15 -16 0
-13 -14 -15 16 0
-1 -17 18 0
1 -18 0
17 -18 0
-19 0
16 18 19 -20 0
16 18 -19 20 0
16 -18 19 20 0
16 -18 -19 -20 0
-16 18 19 20 0
-16 18 -19 -20 0
-16 -18 19 -20 0
-16 -18 -19 20 0
-11 -20 21 0
11 -21 0
20 -21 0
-22 -2 23 0
22 -23 0
2 -23 0
-12 -7 24 0
12 -24 0
7 -24 0
13 14 -25 0
13 15 -25 0
-14 -15 25 0
14 15 -25 0
-13 -15 25 0
-13 -14 25 0
23 24 25 -26 0
23 24 -25 26 0
23 -24 25 26 0
23 -24 -25 -26 0
-23 24 25 26 0
-23 24 -25 -26 0
-23 -24 25 -26 0
-23 -24 -25 26 0
-5 -17 27 0
5 -27 0
17 -27 0
16 18 -28 0
16 19 -28 0
-18 -19 28 0
18 19 -28 0
-16 -19 28 0
-16 -18 28 0
26 27 28 -29 0
26 27 -28 29 0
26 -27 28 29 0
26 -27 -28 -29 0
-26 27 28 29 0
-26 27 -28 -29 0
-26 -27 28 -29 0
-26 -27 -28 29 0
-1 -30 31 0
1 -31 0
30 -31 0
-32 0
29 31 32 -33 0
29 31 -32 33 0
29 -31 32 33 0
29 -31 -32 -33 0
-29 31 32 33 0
-29 31 -32 -33 0
-29 -31 32 -33 0
-29 -31 -32 33 0
-33 -34 0
33 34 0
-21 -34 35 0
21 -35 0
34 -35 0
-36 -2 37 0
36 -37 0
2 -37 0
-22 -7 38 0
22 -38 0
7 -38 0
23 24 -39 0
23 25 -39 0
-24 -25 39 0
24 25 -39 0
-23 -25 39 0
-23 -24 39 0
37 38 39 -40 0
37 38 -39 40 0
37 -38 39 40 0
37 -38 -39 -40 0
-37 38 39 40 0
-37 38 -39 -40 0
-37 -38 39 -40 0
-37 -38 -39 40 0
-12 -17 41 0
12 -41 0
17 -41 0
26 27 -42 0
26 28 -42 0
-27 -28 42 0
27 28 -42 0
-26 -28 42 0
-26 -27 42 0
40 41 42 -43 0
40 41 -42 43 0
40 -41 42 43 0
40 -41 -42 -43 0
-40 41 42 43 0
-40 41 -42 -43 0
-40 -41 42 -43 0
-40 -41 -42 43 0
-5 -30 44 0
5 -44 0
30 -44 0
29 31 -45 0
29 32 -45 0
-31 -32 45 0
31 32 -45 0
-29 -32 45 0
-29 -31 45 0
43 44 45 -46 0
43 44 -45 46 0
43 -44 45 46 0
43 -44 -45 -46 0
-43 44 45 46 0
-43 44 -45 -46 0
-43 -44 45 -46 0
-43 -44 -45 46 0
-1 -47 48 0
1 -48 0
47 -48 0
-49 0
46 48 49 -50 0
46 48 -49 50 0
46 -48 49 50 0
46 -48 -49 -50 0
-46 48 49 50 0
-46 48 -49 -50 0
-46 -48 49 -50 0
-46 -48 -49 50 0
-35 -50 51 0
35 -51 0
50 -51 0
-52 -2 53 0
52 -53 0
2 -53 0
-36 -7 54 0
36 -54 0
7 -54 0
37 38 -55 0
37 39 -55 0
-38 -39 55 0
38 39 -55 0
-37 -39 55 0
-37 -38 55 0
53 54 55 -56 0
53 54 -55 56 0
53 -54 55 56 0
53 -54 -55 -56 0
-53 54 55 56 0
-53 54 -55 -56 0
-53 -54 55 -56 0
-53 -54 -55 56 0
-22 -17 57 0
22 -57 0
17 -57 0
40 41 -58 0
40 42 -58 0
-41 -42 58 0
41 42 -58 0
-40 -42 58 0
-40 -41 58 0
56 57 58 -59 0
56 57 -58 59 0
56 -57 58 59 0
56 -57 -58 -59 0
-56 57 58 59 0
-56 57 -58 -59 0
-56 -57 58 -59 0
-56 -57 -58 59 0
-12 -30 60 0
12 -60 0
30 -60 0
43 44 -61 0
43 45 -61 0
-44 -45 61 0
44 45 -61 0
-43 -45 61 0
-43 -44 61 0
59 60 61 -62 0
59 60 -61 62 0
59 -60 61 62 0
59 -60 -61 -62 0
-59 60 61 62 0
-59 60 -61 -62 0
-59 -60 61 -62 0
-59 -60 -61 62 0
-5 -47 63 0
5 -63 0
47 -63 0
46 48 -64 0
46 49 -64 0
-48 -49 64 0
48 49 -64 0
-46 -49 64 0
-46 -48 64 0
62 63 64 -65 0
62 63 -64 65 0
62 -63 64 65 0
62 -63 -64 -65 0
-62 63 64 65 0
-62 63 -64 -65 0
-62 -63 64 -65 0
-62 -63 -64 65 0
-1 -66 67 0
1 -67 0
66 -67 0
-68 0
65 67 68 -69 0
65 67 -68 69 0
65 -67 68 69 0
65 -67 -68 -69 0
-65 67 68 69 0
-65 67 -68 -69 0
-65 -67 68 -69 0
-65 -67 -68 69 0
-69 -70 0
69 70 0
-51 -70 71 0
51 -71 0
70 -71 0
-72 -2 73 0
72 -73 0
2 -73 0
-52 -7 74 0
52 -74 0
7 -74 0
53 54 -75 0
53 55 -75 0
-54 -55 75 0
54 55 -75 0
-53 -55 75 0
-53 -54 75 0
73 74 75 -76 0
73 74 -75 76 0
73 -74 75 76 0
73 -74 -75 -76 0
-73 74 75 76 0
-73 74 -75 -76 0
-73 -74 75 -76 0
-73 -74 -75 76 0
-36 -17 77 0
36 -77 0
17 -77 0
56 57 -78 0
56 58 -78 0
-57 -58 78 0
57 58 -78 0
-56 -58 78 0
-56 -57 78 0
76 77 78 -79 0
76 77 -78 79 0
76 -77 78 79 0
76 -77 -78 -79 0
-76 77 78 79 0
-76 77 -78 -79 0
-76 -77 78 -79 0
-76 -77 -78 79 0
-22 -30 80 0
22 -80 0
30 -80 0
59 60 -81 0
59 61 -81 0
-60 -61 81 0
60 61 -81 0
-59 -61 81 0
-59 -60 81 0
79 80 81 -82 0
79 80 -81 82 0
79 -80 81 82 0
79 -80 -81 -82 0
-79 80 81 82 0
-79 80 -81 -82 0
-79 -80 81 -82 0
-79 -80 -81 82 0
-12 -47 83 0
12 -83 0
47 -83 0
62 63 -84 0
62 64 -84 0
-63 -64 84 0
63 64 -84 0
-62 -64 84 0
-62 -63 84 0
82 83 84 -85 0
82 83 -84 85 0
82 -83 84 85 0
82 -83 -84 -85 0
-82 83 84 85 0
-82 83 -84 -85 0
-82 -83 84 -85 0
-82 -83 -84 85 0
-5 -66 86 0
5 -86 0
66 -86 0
65 67 -87 0
65 68 -87 0
-67 -68 87 0
67 68 -87 0
-65 -68 87 0
-65 -67 87 0
85 86 87 -88 0
85 86 -87 88 0
85 -86 87 88 0
85 -86 -87 -88 0
-85 86 87 88 0
-85 86 -87 -88 0
-85 -86 87 -88 0
-85 -86 -87 88 0
-1 -89 90 0
1 -90 0
89 -90 0
-91 0
88 90 91 -92 0
88 90 -91 92 0
88 -90 91 92 0
88 -90 -91 -92 0
-88 90 91 92 0
-88 90 -91 -92 0
-88 -90 91 -92 0
-88 -90 -91 92 0
-92 -93 0
92 93 0
-71 -93 94 0
71 -94 0
93 -94 0
-95 -2 96 0
95 -96 0
2 -96 0
-72 -7 97 0
72 -97 0
7 -97 0
73 74 -98 0
73 75 -98 0
-74 -75 98 0
74 75 -98 0
-73 -75 98 0
-73 -74 98 0
96 97 98 -99 0
96 97 -98 99 0
96 -97 98 99 0
96 -97 -98 -99 0
-96 97 98 99 0
-96 97 -98 -99 0
-96 -97 98 -99 0
-96 -97 -98 99 0
-52 -17 100 0
52 -100 0
17 -100 0
76 77 -101 0
76 78 -101 0
-77 -78 101 0
77 78 -101 0
-76 -78 101 0
-76 -77 101 0
99 100 101 -102 0
99 100 -101 102 0
99 -100 101 102 0
99 -100 -101 -102 0
-99 100 101 102 0
-99 100 -101 -102 0
-99 -100 101 -102 0
-99 -100 -101 102 0
-36 -30 103 0
36 -103 0
30 -103 0
79 80 -104 0
79 81 -104 0
-80 -81 104 0
80 81 -104 0
-79 -81 104 0
-79 -80 104 0
102 103 104 -105 0
102 103 -104 105 0
102 -103 104 105 0
102 -103 -104 -105 0
-102 103 104 105 0
-102 103 -104 -105 0
-102 -103 104 -105 0
-102 -103 -104 105 0
-22 -47 106 0
22 -106 0
47 -106 0
82 83 -107 0
82 84 -107 0
-83 -84 107 0
83 84 -107 0
-82 -84 107 0
-82 -83 107 0
105 106 107 -108 0
105 106 -107 108 0
105 -106 107 108 0
105 -106 -107 -108 0
-105 106 107 108 0
-105 106 -107 -108 0
-105 -106 107 -108 0
-105 -106 -107 108 0
-12 -66 109 0
12 -109 0
66 -109 0
85 86 -110 0
85 87 -110 0
-86 -87 110 0
86 87 -110 0
-85 -87 110 0
-85 -86 110 0
108 109 110 -111 0
108 109 -110 111 0
108 -109 110 111 0
108 -109 -110 -111 0
-108 109 110 111 0
-108 109 -110 -111 0
-108 -109 110 -111 0
-108 -109 -110 111 0
-5 -89 112 0
5 -112 0
89 -112 0
88 90 -113 0
88 91 -113 0
-90 -91 113 0
90 91 -113 0
-88 -91 113 0
-88 -90 113 0
111 112 113 -114 0
111 112 -113 114 0
111 -112 113 114 0
111 -112 -113 -114 0
-111 112 113 114 0
-111 112 -113 -114 0
-111 -112 113 -114 0
-111 -112 -113 114 0
-1 -115 116 0
1 -116 0
115 -116 0
-117 0
114 116 117 -118 0
114 116 -117 118 0
114 -116 117 118 0
114 -116 -117 -118 0
-114 116 117 118 0
-114 116 -117 -118 0
-114 -116 117 -118 0
-114 -116 -117 118 0
-118 -119 0
118 119 0
-94 -119 120 0
94 -120 0
119 -120 0
120 0
